# Solution for model count
# Objective value = 10
z#1 0
z#2 0
z#3 0
z#4 1
z#5 1
z#6 1
z#7 0
z#8 0
z#9 0
z#10 1
z#11 1
z#12 1
z#13 1
z#14 0
z#15 0
z#16 1
z#17 0
z#18 0
z#19 0
z#20 1
z#21 1
z#22 0
z#23 0
z#24 0
x#24 0
x#23 0
x#22 0
x#21 192
x#20 1529
x#19 0
x#18 0
x#17 0
x#16 811
x#15 0
x#14 0
x#13 2454
x#12 195
x#11 3883
x#10 31
x#9 0
x#8 0
x#7 0
x#6 261
x#5 527
x#4 117
x#3 0
x#2 0
x#1 0
